%%% static parameters %%%
timespan = 1;
Fact = [1];
Distr1 = [15];
Distr2 = [20];
Clients_N = [100];
Demand_W = [15];
Lt0 = [4];
Lt1 = [4];
SS_ = [0.85];
DS_D = [20];
K = [200];
MA = [500];
%%% dynamic parameters %%%
lost_ratio_sales_ret_th = 0.06894026581074551;
lost_ratio_sales_ret_w = 6;
lost_ratio_sales_dis_th = 0.15218051354781068;
lost_ratio_sales_dis_w = 50;
lost_ratio_sales_fac_th = 0.1481632088997203;
lost_ratio_sales_fac_w = 75;
stock_customer_MA_mean_relative_th = 0.09488564974993552;
stock_customer_MA_mean_relative_w = 54;
stock_distributor_MA_mean_relative_th = 0.9655009409660529;
stock_distributor_MA_mean_relative_w = 28;
stock_retailer_MA_mean_relative_th = 0.6577193666619655;
stock_retailer_MA_mean_relative_w = 50;
stock_factory_MA_mean_relative_th = 0.9699910630338878;
stock_factory_MA_mean_relative_w = 35;
